\ Model p-center
\ LP format - for model browsing. Use MPS format to capture full model detail.
Minimize
  0.5 L + 0.5 eta
Subject To
 epigraph[0]: 2411.142943032464 x[0,1] + 1779.15965424703 x[0,2] - L <= 0
 epigraph[1]: 3828.045993062523 x[1,0] + 1737.786959349649 x[1,2] - L <= 0
 epigraph[2]: 1978.50285981898 x[2,0] + 1217.206059157696 x[2,1] - L <= 0
 p: y[0] + y[1] + y[2] = 1
 x<y[0,0]: x[0,0] - y[0] <= 0
 x<y[0,1]: x[0,1] - y[1] <= 0
 x<y[0,2]: x[0,2] - y[2] <= 0
 x<y[1,0]: x[1,0] - y[0] <= 0
 x<y[1,1]: x[1,1] - y[1] <= 0
 x<y[1,2]: x[1,2] - y[2] <= 0
 x<y[2,0]: x[2,0] - y[0] <= 0
 x<y[2,1]: x[2,1] - y[1] <= 0
 x<y[2,2]: x[2,2] - y[2] <= 0
 sumx[0]: x[0,0] + x[0,1] + x[0,2] = 1
 sumx[1]: x[1,0] + x[1,1] + x[1,2] = 1
 sumx[2]: x[2,0] + x[2,1] + x[2,2] = 1
 eta>k[0]: - L3[0] + eta >= 0
 sumcdv<L3k[0,0]: 2272.940342393084 v[0,0,1] + 864.7174334865325 v[0,0,2]
   - L3[0] <= 0
 sumcdv<L3k[0,1]: 3153.719990881915 v[0,1,0] + 1121.977024482929 v[0,1,2]
   - L3[0] <= 0
 sumcdv<L3k[0,2]: 3101.800431999184 v[0,2,0] + 1535.200989421115 v[0,2,1]
   - L3[0] <= 0
 v<y+u[0,0,0]: - y[0] + v[0,0,0] - u[0,0] <= 0
 v<y+u[0,0,1]: - y[1] + v[0,0,1] - u[0,1] <= 0
 v<y+u[0,0,2]: - y[2] + v[0,0,2] - u[0,2] <= 0
 v<y+u[0,1,0]: - y[0] + v[0,1,0] - u[0,0] <= 0
 v<y+u[0,1,1]: - y[1] + v[0,1,1] - u[0,1] <= 0
 v<y+u[0,1,2]: - y[2] + v[0,1,2] - u[0,2] <= 0
 v<y+u[0,2,0]: - y[0] + v[0,2,0] - u[0,0] <= 0
 v<y+u[0,2,1]: - y[1] + v[0,2,1] - u[0,1] <= 0
 v<y+u[0,2,2]: - y[2] + v[0,2,2] - u[0,2] <= 0
 v<1-ak[0,0,0]: v[0,0,0] <= 1
 v<1-ak[0,0,1]: v[0,0,1] <= 1
 v<1-ak[0,0,2]: v[0,0,2] <= 0
 v<1-ak[0,1,0]: v[0,1,0] <= 1
 v<1-ak[0,1,1]: v[0,1,1] <= 1
 v<1-ak[0,1,2]: v[0,1,2] <= 0
 v<1-ak[0,2,0]: v[0,2,0] <= 1
 v<1-ak[0,2,1]: v[0,2,1] <= 1
 v<1-ak[0,2,2]: v[0,2,2] <= 0
 sumv[0,0]: v[0,0,0] + v[0,0,1] + v[0,0,2] = 1
 sumv[0,1]: v[0,1,0] + v[0,1,1] + v[0,1,2] = 1
 sumv[0,2]: v[0,2,0] + v[0,2,1] + v[0,2,2] = 1
 u+y<1[0,0]: y[0] + u[0,0] <= 1
 u+y<1[0,1]: y[1] + u[0,1] <= 1
 u+y<1[0,2]: y[2] + u[0,2] <= 1
 u+ak<1[0,0]: u[0,0] <= 1
 u+ak<1[0,1]: u[0,1] <= 1
 u+ak<1[0,2]: u[0,2] <= 0
 2S-p[0]: y[0] + y[1] + u[0,0] + u[0,1] + u[0,2] = 1
Bounds
Binaries
 x[0,0] x[0,1] x[0,2] x[1,0] x[1,1] x[1,2] x[2,0] x[2,1] x[2,2] y[0] y[1]
 y[2]
End
